;test regex .{31}[sS]\u{20}[pP]\u{20}_\u{20}[sS]\u{20}[tT]\u{20}[aA]\u{20}[rR]\u{20}[tT]\u{20}_\u{20}[jJ]\u{20}[oO]\u{20}[bB]\u{20}
(declare-const X String)
(assert (str.in_re X (re.++ ((_ re.loop 31 31) (re.diff re.allchar (str.to_re "\n"))) (re.++ (re.union (str.to_re "s") (str.to_re "S")) (re.++ (str.to_re "\u{20}") (re.++ (re.union (str.to_re "p") (str.to_re "P")) (re.++ (str.to_re "\u{20}") (re.++ (str.to_re "_") (re.++ (str.to_re "\u{20}") (re.++ (re.union (str.to_re "s") (str.to_re "S")) (re.++ (str.to_re "\u{20}") (re.++ (re.union (str.to_re "t") (str.to_re "T")) (re.++ (str.to_re "\u{20}") (re.++ (re.union (str.to_re "a") (str.to_re "A")) (re.++ (str.to_re "\u{20}") (re.++ (re.union (str.to_re "r") (str.to_re "R")) (re.++ (str.to_re "\u{20}") (re.++ (re.union (str.to_re "t") (str.to_re "T")) (re.++ (str.to_re "\u{20}") (re.++ (str.to_re "_") (re.++ (str.to_re "\u{20}") (re.++ (re.union (str.to_re "j") (str.to_re "J")) (re.++ (str.to_re "\u{20}") (re.++ (re.union (str.to_re "o") (str.to_re "O")) (re.++ (str.to_re "\u{20}") (re.++ (re.union (str.to_re "b") (str.to_re "B")) (str.to_re "\u{20}")))))))))))))))))))))))))))
; sanitize danger characters:  < > ' " \ / &
(assert (not (str.in_re X (re.* (re.union (str.to_re "\u{3c}") (str.to_re "\u{3e}") (str.to_re "\u{27}") (str.to_re "\u{22}") (str.to_re "\u{5c}") (str.to_re "\u{2f}") (str.to_re "\u{26}"))))))
(assert (< 20 (str.len X)))
(check-sat)
(get-model)